# Test of MEAM potential for ZrC system

units		metal
boundary	p p p

atom_style      atomic

read_data       positions.eam

pair_style	eam/alloy
pair_coeff	* * ZrC.eam.alloy Zr C

thermo		10
timestep	0.001

dump		1 all atom 10 dump.meam

run             100
